\ LP format - for model browsing. Use MPS format to capture full model detail.
Maximize
  46 x[0,7] + 16 x[0,1] + 6 x[0,3] + 68 x[0,5] + 2 x[0,6] + 100 x[1,6]
   + 84 x[1,2] + 37 x[1,3] + 75 x[2,6] + 50 x[2,5] + 96 x[3,4] + 2 x[3,6]
   + 34 x[4,5] + 4 x[5,6] + 19 x[6,7]
Subject To
 cycleIneq0: - x[2,5] + x[2,4] - x[4,5] <= 0
 cycleIneq1: - x[2,5] - x[2,4] + x[4,5] <= 0
 cycleIneq2: x[2,5] - x[2,4] - x[4,5] <= 0
 cycleIneq3: x[2,5] + x[2,4] + x[4,5] <= 2
 cycleIneq4: x[2,4] - x[2,7] - x[4,7] <= 0
 cycleIneq5: - x[2,4] - x[2,7] + x[4,7] <= 0
 cycleIneq6: - x[2,4] + x[2,7] - x[4,7] <= 0
 cycleIneq7: x[2,4] + x[2,7] + x[4,7] <= 2
 cycleIneq8: - x[0,3] + x[0,2] - x[2,3] <= 0
 cycleIneq9: - x[0,3] - x[0,2] + x[2,3] <= 0
 cycleIneq10: x[0,3] - x[0,2] - x[2,3] <= 0
 cycleIneq11: x[0,3] + x[0,2] + x[2,3] <= 2
 cycleIneq12: x[1,6] - x[1,7] - x[6,7] <= 0
 cycleIneq13: - x[1,6] - x[1,7] + x[6,7] <= 0
 cycleIneq14: - x[1,6] + x[1,7] - x[6,7] <= 0
 cycleIneq15: x[1,6] + x[1,7] + x[6,7] <= 2
 cycleIneq16: - x[0,5] + x[0,2] - x[2,5] <= 0
 cycleIneq17: - x[0,5] - x[0,2] + x[2,5] <= 0
 cycleIneq18: x[0,5] - x[0,2] - x[2,5] <= 0
 cycleIneq19: x[0,5] + x[0,2] + x[2,5] <= 2
 cycleIneq20: x[0,5] - x[0,6] - x[5,6] <= 0
 cycleIneq21: - x[0,5] - x[0,6] + x[5,6] <= 0
 cycleIneq22: - x[0,5] + x[0,6] - x[5,6] <= 0
 cycleIneq23: x[0,5] + x[0,6] + x[5,6] <= 2
 cycleIneq24: x[3,5] - x[3,7] - x[5,7] <= 0
 cycleIneq25: - x[3,5] - x[3,7] + x[5,7] <= 0
 cycleIneq26: - x[3,5] + x[3,7] - x[5,7] <= 0
 cycleIneq27: x[3,5] + x[3,7] + x[5,7] <= 2
 cycleIneq28: - x[2,6] + x[2,5] - x[5,6] <= 0
 cycleIneq29: - x[2,6] - x[2,5] + x[5,6] <= 0
 cycleIneq30: x[2,6] - x[2,5] - x[5,6] <= 0
 cycleIneq31: x[2,6] + x[2,5] + x[5,6] <= 2
 cycleIneq32: - x[0,7] + x[0,2] - x[2,7] <= 0
 cycleIneq33: - x[0,7] - x[0,2] + x[2,7] <= 0
 cycleIneq34: x[0,7] - x[0,2] - x[2,7] <= 0
 cycleIneq35: x[0,7] + x[0,2] + x[2,7] <= 2
 cycleIneq36: x[1,4] - x[1,5] - x[4,5] <= 0
 cycleIneq37: - x[1,4] - x[1,5] + x[4,5] <= 0
 cycleIneq38: - x[1,4] + x[1,5] - x[4,5] <= 0
 cycleIneq39: x[1,4] + x[1,5] + x[4,5] <= 2
 cycleIneq40: x[0,3] - x[0,4] - x[3,4] <= 0
 cycleIneq41: - x[0,3] - x[0,4] + x[3,4] <= 0
 cycleIneq42: - x[0,3] + x[0,4] - x[3,4] <= 0
 cycleIneq43: x[0,3] + x[0,4] + x[3,4] <= 2
 cycleIneq44: - x[0,7] + x[0,6] - x[6,7] <= 0
 cycleIneq45: - x[0,7] - x[0,6] + x[6,7] <= 0
 cycleIneq46: x[0,7] - x[0,6] - x[6,7] <= 0
 cycleIneq47: x[0,7] + x[0,6] + x[6,7] <= 2
 cycleIneq48: x[2,6] - x[2,7] - x[6,7] <= 0
 cycleIneq49: - x[2,6] - x[2,7] + x[6,7] <= 0
 cycleIneq50: - x[2,6] + x[2,7] - x[6,7] <= 0
 cycleIneq51: x[2,6] + x[2,7] + x[6,7] <= 2
 cycleIneq52: x[1,4] - x[1,7] - x[4,7] <= 0
 cycleIneq53: - x[1,4] - x[1,7] + x[4,7] <= 0
 cycleIneq54: - x[1,4] + x[1,7] - x[4,7] <= 0
 cycleIneq55: x[1,4] + x[1,7] + x[4,7] <= 2
 cycleIneq56: x[0,3] - x[0,6] - x[3,6] <= 0
 cycleIneq57: - x[0,3] - x[0,6] + x[3,6] <= 0
 cycleIneq58: - x[0,3] + x[0,6] - x[3,6] <= 0
 cycleIneq59: x[0,3] + x[0,6] + x[3,6] <= 2
 cycleIneq60: - x[2,6] + x[2,3] - x[3,6] <= 0
 cycleIneq61: - x[2,6] - x[2,3] + x[3,6] <= 0
 cycleIneq62: x[2,6] - x[2,3] - x[3,6] <= 0
 cycleIneq63: x[2,6] + x[2,3] + x[3,6] <= 2
 cycleIneq64: - x[3,6] + x[3,5] - x[5,6] <= 0
 cycleIneq65: - x[3,6] - x[3,5] + x[5,6] <= 0
 cycleIneq66: x[3,6] - x[3,5] - x[5,6] <= 0
 cycleIneq67: x[3,6] + x[3,5] + x[5,6] <= 2
 cycleIneq68: x[2,5] - x[2,7] - x[5,7] <= 0
 cycleIneq69: - x[2,5] - x[2,7] + x[5,7] <= 0
 cycleIneq70: - x[2,5] + x[2,7] - x[5,7] <= 0
 cycleIneq71: x[2,5] + x[2,7] + x[5,7] <= 2
 cycleIneq72: - x[1,6] + x[1,4] - x[4,6] <= 0
 cycleIneq73: - x[1,6] - x[1,4] + x[4,6] <= 0
 cycleIneq74: x[1,6] - x[1,4] - x[4,6] <= 0
 cycleIneq75: x[1,6] + x[1,4] + x[4,6] <= 2
 cycleIneq76: x[0,3] - x[0,5] - x[3,5] <= 0
 cycleIneq77: - x[0,3] - x[0,5] + x[3,5] <= 0
 cycleIneq78: - x[0,3] + x[0,5] - x[3,5] <= 0
 cycleIneq79: x[0,3] + x[0,5] + x[3,5] <= 2
 cycleIneq80: x[3,6] - x[3,7] - x[6,7] <= 0
 cycleIneq81: - x[3,6] - x[3,7] + x[6,7] <= 0
 cycleIneq82: - x[3,6] + x[3,7] - x[6,7] <= 0
 cycleIneq83: x[3,6] + x[3,7] + x[6,7] <= 2
 cycleIneq84: - x[2,5] + x[2,3] - x[3,5] <= 0
 cycleIneq85: - x[2,5] - x[2,3] + x[3,5] <= 0
 cycleIneq86: x[2,5] - x[2,3] - x[3,5] <= 0
 cycleIneq87: x[2,5] + x[2,3] + x[3,5] <= 2
 cycleIneq88: - x[0,7] + x[0,3] - x[3,7] <= 0
 cycleIneq89: - x[0,7] - x[0,3] + x[3,7] <= 0
 cycleIneq90: x[0,7] - x[0,3] - x[3,7] <= 0
 cycleIneq91: x[0,7] + x[0,3] + x[3,7] <= 2
 cycleIneq92: x[2,3] - x[2,7] - x[3,7] <= 0
 cycleIneq93: - x[2,3] - x[2,7] + x[3,7] <= 0
 cycleIneq94: - x[2,3] + x[2,7] - x[3,7] <= 0
 cycleIneq95: x[2,3] + x[2,7] + x[3,7] <= 2
 cycleIneq96: x[1,5] - x[1,7] - x[5,7] <= 0
 cycleIneq97: - x[1,5] - x[1,7] + x[5,7] <= 0
 cycleIneq98: - x[1,5] + x[1,7] - x[5,7] <= 0
 cycleIneq99: x[1,5] + x[1,7] + x[5,7] <= 2
 cycleIneq100: - x[0,6] + x[0,4] - x[4,6] <= 0
 cycleIneq101: - x[0,6] - x[0,4] + x[4,6] <= 0
 cycleIneq102: x[0,6] - x[0,4] - x[4,6] <= 0
 cycleIneq103: x[0,6] + x[0,4] + x[4,6] <= 2
 cycleIneq104: x[1,3] - x[1,5] - x[3,5] <= 0
 cycleIneq105: - x[1,3] - x[1,5] + x[3,5] <= 0
 cycleIneq106: - x[1,3] + x[1,5] - x[3,5] <= 0
 cycleIneq107: x[1,3] + x[1,5] + x[3,5] <= 2
 cycleIneq108: - x[0,7] + x[0,1] - x[1,7] <= 0
 cycleIneq109: - x[0,7] - x[0,1] + x[1,7] <= 0
 cycleIneq110: x[0,7] - x[0,1] - x[1,7] <= 0
 cycleIneq111: x[0,7] + x[0,1] + x[1,7] <= 2
 cycleIneq112: x[1,3] - x[1,7] - x[3,7] <= 0
 cycleIneq113: - x[1,3] - x[1,7] + x[3,7] <= 0
 cycleIneq114: - x[1,3] + x[1,7] - x[3,7] <= 0
 cycleIneq115: x[1,3] + x[1,7] + x[3,7] <= 2
 cycleIneq116: x[2,3] - x[2,4] - x[3,4] <= 0
 cycleIneq117: - x[2,3] - x[2,4] + x[3,4] <= 0
 cycleIneq118: - x[2,3] + x[2,4] - x[3,4] <= 0
 cycleIneq119: x[2,3] + x[2,4] + x[3,4] <= 2
 cycleIneq120: x[1,2] - x[1,3] - x[2,3] <= 0
 cycleIneq121: - x[1,2] - x[1,3] + x[2,3] <= 0
 cycleIneq122: - x[1,2] + x[1,3] - x[2,3] <= 0
 cycleIneq123: x[1,2] + x[1,3] + x[2,3] <= 2
 cycleIneq124: x[0,1] - x[0,2] - x[1,2] <= 0
 cycleIneq125: - x[0,1] - x[0,2] + x[1,2] <= 0
 cycleIneq126: - x[0,1] + x[0,2] - x[1,2] <= 0
 cycleIneq127: x[0,1] + x[0,2] + x[1,2] <= 2
 cycleIneq128: - x[1,6] + x[1,5] - x[5,6] <= 0
 cycleIneq129: - x[1,6] - x[1,5] + x[5,6] <= 0
 cycleIneq130: x[1,6] - x[1,5] - x[5,6] <= 0
 cycleIneq131: x[1,6] + x[1,5] + x[5,6] <= 2
 cycleIneq132: - x[0,5] + x[0,4] - x[4,5] <= 0
 cycleIneq133: - x[0,5] - x[0,4] + x[4,5] <= 0
 cycleIneq134: x[0,5] - x[0,4] - x[4,5] <= 0
 cycleIneq135: x[0,5] + x[0,4] + x[4,5] <= 2
 cycleIneq136: x[1,2] - x[1,5] - x[2,5] <= 0
 cycleIneq137: - x[1,2] - x[1,5] + x[2,5] <= 0
 cycleIneq138: - x[1,2] + x[1,5] - x[2,5] <= 0
 cycleIneq139: x[1,2] + x[1,5] + x[2,5] <= 2
 cycleIneq140: x[0,1] - x[0,4] - x[1,4] <= 0
 cycleIneq141: - x[0,1] - x[0,4] + x[1,4] <= 0
 cycleIneq142: - x[0,1] + x[0,4] - x[1,4] <= 0
 cycleIneq143: x[0,1] + x[0,4] + x[1,4] <= 2
 cycleIneq144: - x[0,7] + x[0,4] - x[4,7] <= 0
 cycleIneq145: - x[0,7] - x[0,4] + x[4,7] <= 0
 cycleIneq146: x[0,7] - x[0,4] - x[4,7] <= 0
 cycleIneq147: x[0,7] + x[0,4] + x[4,7] <= 2
 cycleIneq148: x[1,3] - x[1,4] - x[3,4] <= 0
 cycleIneq149: - x[1,3] - x[1,4] + x[3,4] <= 0
 cycleIneq150: - x[1,3] + x[1,4] - x[3,4] <= 0
 cycleIneq151: x[1,3] + x[1,4] + x[3,4] <= 2
 cycleIneq152: x[1,2] - x[1,7] - x[2,7] <= 0
 cycleIneq153: - x[1,2] - x[1,7] + x[2,7] <= 0
 cycleIneq154: - x[1,2] + x[1,7] - x[2,7] <= 0
 cycleIneq155: x[1,2] + x[1,7] + x[2,7] <= 2
 cycleIneq156: x[0,1] - x[0,6] - x[1,6] <= 0
 cycleIneq157: - x[0,1] - x[0,6] + x[1,6] <= 0
 cycleIneq158: - x[0,1] + x[0,6] - x[1,6] <= 0
 cycleIneq159: x[0,1] + x[0,6] + x[1,6] <= 2
 cycleIneq160: - x[1,6] + x[1,3] - x[3,6] <= 0
 cycleIneq161: - x[1,6] - x[1,3] + x[3,6] <= 0
 cycleIneq162: x[1,6] - x[1,3] - x[3,6] <= 0
 cycleIneq163: x[1,6] + x[1,3] + x[3,6] <= 2
 cycleIneq164: x[5,6] - x[5,7] - x[6,7] <= 0
 cycleIneq165: - x[5,6] - x[5,7] + x[6,7] <= 0
 cycleIneq166: - x[5,6] + x[5,7] - x[6,7] <= 0
 cycleIneq167: x[5,6] + x[5,7] + x[6,7] <= 2
 cycleIneq168: x[4,5] - x[4,6] - x[5,6] <= 0
 cycleIneq169: - x[4,5] - x[4,6] + x[5,6] <= 0
 cycleIneq170: - x[4,5] + x[4,6] - x[5,6] <= 0
 cycleIneq171: x[4,5] + x[4,6] + x[5,6] <= 2
 cycleIneq172: x[3,4] - x[3,5] - x[4,5] <= 0
 cycleIneq173: - x[3,4] - x[3,5] + x[4,5] <= 0
 cycleIneq174: - x[3,4] + x[3,5] - x[4,5] <= 0
 cycleIneq175: x[3,4] + x[3,5] + x[4,5] <= 2
 cycleIneq176: x[4,6] - x[4,7] - x[6,7] <= 0
 cycleIneq177: - x[4,6] - x[4,7] + x[6,7] <= 0
 cycleIneq178: - x[4,6] + x[4,7] - x[6,7] <= 0
 cycleIneq179: x[4,6] + x[4,7] + x[6,7] <= 2
 cycleIneq180: x[3,4] - x[3,7] - x[4,7] <= 0
 cycleIneq181: - x[3,4] - x[3,7] + x[4,7] <= 0
 cycleIneq182: - x[3,4] + x[3,7] - x[4,7] <= 0
 cycleIneq183: x[3,4] + x[3,7] + x[4,7] <= 2
 cycleIneq184: - x[2,6] + x[2,4] - x[4,6] <= 0
 cycleIneq185: - x[2,6] - x[2,4] + x[4,6] <= 0
 cycleIneq186: x[2,6] - x[2,4] - x[4,6] <= 0
 cycleIneq187: x[2,6] + x[2,4] + x[4,6] <= 2
 cycleIneq188: x[1,2] - x[1,4] - x[2,4] <= 0
 cycleIneq189: - x[1,2] - x[1,4] + x[2,4] <= 0
 cycleIneq190: - x[1,2] + x[1,4] - x[2,4] <= 0
 cycleIneq191: x[1,2] + x[1,4] + x[2,4] <= 2
 cycleIneq192: x[0,1] - x[0,3] - x[1,3] <= 0
 cycleIneq193: - x[0,1] - x[0,3] + x[1,3] <= 0
 cycleIneq194: - x[0,1] + x[0,3] - x[1,3] <= 0
 cycleIneq195: x[0,1] + x[0,3] + x[1,3] <= 2
 cycleIneq196: x[0,2] - x[0,4] - x[2,4] <= 0
 cycleIneq197: - x[0,2] - x[0,4] + x[2,4] <= 0
 cycleIneq198: - x[0,2] + x[0,4] - x[2,4] <= 0
 cycleIneq199: x[0,2] + x[0,4] + x[2,4] <= 2
 cycleIneq200: - x[1,6] + x[1,2] - x[2,6] <= 0
 cycleIneq201: - x[1,6] - x[1,2] + x[2,6] <= 0
 cycleIneq202: x[1,6] - x[1,2] - x[2,6] <= 0
 cycleIneq203: x[1,6] + x[1,2] + x[2,6] <= 2
 cycleIneq204: x[0,1] - x[0,5] - x[1,5] <= 0
 cycleIneq205: - x[0,1] - x[0,5] + x[1,5] <= 0
 cycleIneq206: - x[0,1] + x[0,5] - x[1,5] <= 0
 cycleIneq207: x[0,1] + x[0,5] + x[1,5] <= 2
 cycleIneq208: - x[0,6] + x[0,2] - x[2,6] <= 0
 cycleIneq209: - x[0,6] - x[0,2] + x[2,6] <= 0
 cycleIneq210: x[0,6] - x[0,2] - x[2,6] <= 0
 cycleIneq211: x[0,6] + x[0,2] + x[2,6] <= 2
 cycleIneq212: - x[0,7] + x[0,5] - x[5,7] <= 0
 cycleIneq213: - x[0,7] - x[0,5] + x[5,7] <= 0
 cycleIneq214: x[0,7] - x[0,5] - x[5,7] <= 0
 cycleIneq215: x[0,7] + x[0,5] + x[5,7] <= 2
 cycleIneq216: x[4,5] - x[4,7] - x[5,7] <= 0
 cycleIneq217: - x[4,5] - x[4,7] + x[5,7] <= 0
 cycleIneq218: - x[4,5] + x[4,7] - x[5,7] <= 0
 cycleIneq219: x[4,5] + x[4,7] + x[5,7] <= 2
 cycleIneq220: x[3,4] - x[3,6] - x[4,6] <= 0
 cycleIneq221: - x[3,4] - x[3,6] + x[4,6] <= 0
 cycleIneq222: - x[3,4] + x[3,6] - x[4,6] <= 0
 cycleIneq223: x[3,4] + x[3,6] + x[4,6] <= 2
 triangleIneq0_0: x[0,1] + x[0,2] + x[1,2] <= 2
 triangleIneq1_0: x[0,1] - x[0,2] - x[1,2] <= 0
 triangleIneq2_0: - x[0,1] + x[0,2] - x[1,2] <= 0
 triangleIneq3_0: - x[0,1] - x[0,2] + x[1,2] <= 2
 triangleIneq0_1: x[0,1] + x[0,3] + x[1,3] <= 2
 triangleIneq1_1: x[0,1] - x[0,3] - x[1,3] <= 0
 triangleIneq2_1: - x[0,1] + x[0,3] - x[1,3] <= 0
 triangleIneq3_1: - x[0,1] - x[0,3] + x[1,3] <= 2
 triangleIneq0_2: x[0,1] + x[0,4] + x[1,4] <= 2
 triangleIneq1_2: x[0,1] - x[0,4] - x[1,4] <= 0
 triangleIneq2_2: - x[0,1] + x[0,4] - x[1,4] <= 0
 triangleIneq3_2: - x[0,1] - x[0,4] + x[1,4] <= 2
 triangleIneq0_3: x[0,1] + x[0,5] + x[1,5] <= 2
 triangleIneq1_3: x[0,1] - x[0,5] - x[1,5] <= 0
 triangleIneq2_3: - x[0,1] + x[0,5] - x[1,5] <= 0
 triangleIneq3_3: - x[0,1] - x[0,5] + x[1,5] <= 2
 triangleIneq0_4: x[0,1] + x[0,6] + x[1,6] <= 2
 triangleIneq1_4: x[0,1] - x[0,6] - x[1,6] <= 0
 triangleIneq2_4: - x[0,1] + x[0,6] - x[1,6] <= 0
 triangleIneq3_4: - x[0,1] - x[0,6] + x[1,6] <= 2
 triangleIneq0_5: x[0,7] + x[0,1] + x[1,7] <= 2
 triangleIneq1_5: - x[0,7] + x[0,1] - x[1,7] <= 0
 triangleIneq2_5: x[0,7] - x[0,1] - x[1,7] <= 0
 triangleIneq3_5: - x[0,7] - x[0,1] + x[1,7] <= 2
 triangleIneq0_6: x[0,5] + x[0,2] + x[2,5] <= 2
 triangleIneq1_6: - x[0,5] + x[0,2] - x[2,5] <= 0
 triangleIneq2_6: x[0,5] - x[0,2] - x[2,5] <= 0
 triangleIneq3_6: - x[0,5] - x[0,2] + x[2,5] <= 2
 triangleIneq0_7: x[0,6] + x[0,2] + x[2,6] <= 2
 triangleIneq1_7: - x[0,6] + x[0,2] - x[2,6] <= 0
 triangleIneq2_7: x[0,6] - x[0,2] - x[2,6] <= 0
 triangleIneq3_7: - x[0,6] - x[0,2] + x[2,6] <= 2
 triangleIneq0_8: x[0,3] + x[0,4] + x[3,4] <= 2
 triangleIneq1_8: x[0,3] - x[0,4] - x[3,4] <= 0
 triangleIneq2_8: - x[0,3] + x[0,4] - x[3,4] <= 0
 triangleIneq3_8: - x[0,3] - x[0,4] + x[3,4] <= 2
 triangleIneq0_9: x[0,3] + x[0,5] + x[3,5] <= 2
 triangleIneq1_9: x[0,3] - x[0,5] - x[3,5] <= 0
 triangleIneq2_9: - x[0,3] + x[0,5] - x[3,5] <= 0
 triangleIneq3_9: - x[0,3] - x[0,5] + x[3,5] <= 2
 triangleIneq0_10: x[0,3] + x[0,6] + x[3,6] <= 2
 triangleIneq1_10: x[0,3] - x[0,6] - x[3,6] <= 0
 triangleIneq2_10: - x[0,3] + x[0,6] - x[3,6] <= 0
 triangleIneq3_10: - x[0,3] - x[0,6] + x[3,6] <= 2
 triangleIneq0_11: x[0,7] + x[0,3] + x[3,7] <= 2
 triangleIneq1_11: - x[0,7] + x[0,3] - x[3,7] <= 0
 triangleIneq2_11: x[0,7] - x[0,3] - x[3,7] <= 0
 triangleIneq3_11: - x[0,7] - x[0,3] + x[3,7] <= 2
 triangleIneq0_12: x[0,5] + x[0,4] + x[4,5] <= 2
 triangleIneq1_12: - x[0,5] + x[0,4] - x[4,5] <= 0
 triangleIneq2_12: x[0,5] - x[0,4] - x[4,5] <= 0
 triangleIneq3_12: - x[0,5] - x[0,4] + x[4,5] <= 2
 triangleIneq0_13: x[0,5] + x[0,6] + x[5,6] <= 2
 triangleIneq1_13: x[0,5] - x[0,6] - x[5,6] <= 0
 triangleIneq2_13: - x[0,5] + x[0,6] - x[5,6] <= 0
 triangleIneq3_13: - x[0,5] - x[0,6] + x[5,6] <= 2
 triangleIneq0_14: x[0,7] + x[0,5] + x[5,7] <= 2
 triangleIneq1_14: - x[0,7] + x[0,5] - x[5,7] <= 0
 triangleIneq2_14: x[0,7] - x[0,5] - x[5,7] <= 0
 triangleIneq3_14: - x[0,7] - x[0,5] + x[5,7] <= 2
 triangleIneq0_15: x[0,7] + x[0,6] + x[6,7] <= 2
 triangleIneq1_15: - x[0,7] + x[0,6] - x[6,7] <= 0
 triangleIneq2_15: x[0,7] - x[0,6] - x[6,7] <= 0
 triangleIneq3_15: - x[0,7] - x[0,6] + x[6,7] <= 2
 triangleIneq0_16: x[1,2] + x[1,3] + x[2,3] <= 2
 triangleIneq1_16: x[1,2] - x[1,3] - x[2,3] <= 0
 triangleIneq2_16: - x[1,2] + x[1,3] - x[2,3] <= 0
 triangleIneq3_16: - x[1,2] - x[1,3] + x[2,3] <= 2
 triangleIneq0_17: x[1,2] + x[1,4] + x[2,4] <= 2
 triangleIneq1_17: x[1,2] - x[1,4] - x[2,4] <= 0
 triangleIneq2_17: - x[1,2] + x[1,4] - x[2,4] <= 0
 triangleIneq3_17: - x[1,2] - x[1,4] + x[2,4] <= 2
 triangleIneq0_18: x[1,2] + x[1,5] + x[2,5] <= 2
 triangleIneq1_18: x[1,2] - x[1,5] - x[2,5] <= 0
 triangleIneq2_18: - x[1,2] + x[1,5] - x[2,5] <= 0
 triangleIneq3_18: - x[1,2] - x[1,5] + x[2,5] <= 2
 triangleIneq0_19: x[1,6] + x[1,2] + x[2,6] <= 2
 triangleIneq1_19: - x[1,6] + x[1,2] - x[2,6] <= 0
 triangleIneq2_19: x[1,6] - x[1,2] - x[2,6] <= 0
 triangleIneq3_19: - x[1,6] - x[1,2] + x[2,6] <= 2
 triangleIneq0_20: x[1,2] + x[1,7] + x[2,7] <= 2
 triangleIneq1_20: x[1,2] - x[1,7] - x[2,7] <= 0
 triangleIneq2_20: - x[1,2] + x[1,7] - x[2,7] <= 0
 triangleIneq3_20: - x[1,2] - x[1,7] + x[2,7] <= 2
 triangleIneq0_21: x[1,3] + x[1,4] + x[3,4] <= 2
 triangleIneq1_21: x[1,3] - x[1,4] - x[3,4] <= 0
 triangleIneq2_21: - x[1,3] + x[1,4] - x[3,4] <= 0
 triangleIneq3_21: - x[1,3] - x[1,4] + x[3,4] <= 2
 triangleIneq0_22: x[1,3] + x[1,5] + x[3,5] <= 2
 triangleIneq1_22: x[1,3] - x[1,5] - x[3,5] <= 0
 triangleIneq2_22: - x[1,3] + x[1,5] - x[3,5] <= 0
 triangleIneq3_22: - x[1,3] - x[1,5] + x[3,5] <= 2
 triangleIneq0_23: x[1,6] + x[1,3] + x[3,6] <= 2
 triangleIneq1_23: - x[1,6] + x[1,3] - x[3,6] <= 0
 triangleIneq2_23: x[1,6] - x[1,3] - x[3,6] <= 0
 triangleIneq3_23: - x[1,6] - x[1,3] + x[3,6] <= 2
 triangleIneq0_24: x[1,3] + x[1,7] + x[3,7] <= 2
 triangleIneq1_24: x[1,3] - x[1,7] - x[3,7] <= 0
 triangleIneq2_24: - x[1,3] + x[1,7] - x[3,7] <= 0
 triangleIneq3_24: - x[1,3] - x[1,7] + x[3,7] <= 2
 triangleIneq0_25: x[1,4] + x[1,5] + x[4,5] <= 2
 triangleIneq1_25: x[1,4] - x[1,5] - x[4,5] <= 0
 triangleIneq2_25: - x[1,4] + x[1,5] - x[4,5] <= 0
 triangleIneq3_25: - x[1,4] - x[1,5] + x[4,5] <= 2
 triangleIneq0_26: x[1,6] + x[1,5] + x[5,6] <= 2
 triangleIneq1_26: - x[1,6] + x[1,5] - x[5,6] <= 0
 triangleIneq2_26: x[1,6] - x[1,5] - x[5,6] <= 0
 triangleIneq3_26: - x[1,6] - x[1,5] + x[5,6] <= 2
 triangleIneq0_27: x[1,6] + x[1,7] + x[6,7] <= 2
 triangleIneq1_27: x[1,6] - x[1,7] - x[6,7] <= 0
 triangleIneq2_27: - x[1,6] + x[1,7] - x[6,7] <= 0
 triangleIneq3_27: - x[1,6] - x[1,7] + x[6,7] <= 2
 triangleIneq0_28: x[2,3] + x[2,4] + x[3,4] <= 2
 triangleIneq1_28: x[2,3] - x[2,4] - x[3,4] <= 0
 triangleIneq2_28: - x[2,3] + x[2,4] - x[3,4] <= 0
 triangleIneq3_28: - x[2,3] - x[2,4] + x[3,4] <= 2
 triangleIneq0_29: x[2,6] + x[2,3] + x[3,6] <= 2
 triangleIneq1_29: - x[2,6] + x[2,3] - x[3,6] <= 0
 triangleIneq2_29: x[2,6] - x[2,3] - x[3,6] <= 0
 triangleIneq3_29: - x[2,6] - x[2,3] + x[3,6] <= 2
 triangleIneq0_30: x[2,5] + x[2,4] + x[4,5] <= 2
 triangleIneq1_30: - x[2,5] + x[2,4] - x[4,5] <= 0
 triangleIneq2_30: x[2,5] - x[2,4] - x[4,5] <= 0
 triangleIneq3_30: - x[2,5] - x[2,4] + x[4,5] <= 2
 triangleIneq0_31: x[2,6] + x[2,5] + x[5,6] <= 2
 triangleIneq1_31: - x[2,6] + x[2,5] - x[5,6] <= 0
 triangleIneq2_31: x[2,6] - x[2,5] - x[5,6] <= 0
 triangleIneq3_31: - x[2,6] - x[2,5] + x[5,6] <= 2
 triangleIneq0_32: x[2,5] + x[2,7] + x[5,7] <= 2
 triangleIneq1_32: x[2,5] - x[2,7] - x[5,7] <= 0
 triangleIneq2_32: - x[2,5] + x[2,7] - x[5,7] <= 0
 triangleIneq3_32: - x[2,5] - x[2,7] + x[5,7] <= 2
 triangleIneq0_33: x[2,6] + x[2,7] + x[6,7] <= 2
 triangleIneq1_33: x[2,6] - x[2,7] - x[6,7] <= 0
 triangleIneq2_33: - x[2,6] + x[2,7] - x[6,7] <= 0
 triangleIneq3_33: - x[2,6] - x[2,7] + x[6,7] <= 2
 triangleIneq0_34: x[3,4] + x[3,5] + x[4,5] <= 2
 triangleIneq1_34: x[3,4] - x[3,5] - x[4,5] <= 0
 triangleIneq2_34: - x[3,4] + x[3,5] - x[4,5] <= 0
 triangleIneq3_34: - x[3,4] - x[3,5] + x[4,5] <= 2
 triangleIneq0_35: x[3,4] + x[3,6] + x[4,6] <= 2
 triangleIneq1_35: x[3,4] - x[3,6] - x[4,6] <= 0
 triangleIneq2_35: - x[3,4] + x[3,6] - x[4,6] <= 0
 triangleIneq3_35: - x[3,4] - x[3,6] + x[4,6] <= 2
 triangleIneq0_36: x[3,4] + x[3,7] + x[4,7] <= 2
 triangleIneq1_36: x[3,4] - x[3,7] - x[4,7] <= 0
 triangleIneq2_36: - x[3,4] + x[3,7] - x[4,7] <= 0
 triangleIneq3_36: - x[3,4] - x[3,7] + x[4,7] <= 2
 triangleIneq0_37: x[3,6] + x[3,5] + x[5,6] <= 2
 triangleIneq1_37: - x[3,6] + x[3,5] - x[5,6] <= 0
 triangleIneq2_37: x[3,6] - x[3,5] - x[5,6] <= 0
 triangleIneq3_37: - x[3,6] - x[3,5] + x[5,6] <= 2
 triangleIneq0_38: x[3,6] + x[3,7] + x[6,7] <= 2
 triangleIneq1_38: x[3,6] - x[3,7] - x[6,7] <= 0
 triangleIneq2_38: - x[3,6] + x[3,7] - x[6,7] <= 0
 triangleIneq3_38: - x[3,6] - x[3,7] + x[6,7] <= 2
 triangleIneq0_39: x[4,5] + x[4,6] + x[5,6] <= 2
 triangleIneq1_39: x[4,5] - x[4,6] - x[5,6] <= 0
 triangleIneq2_39: - x[4,5] + x[4,6] - x[5,6] <= 0
 triangleIneq3_39: - x[4,5] - x[4,6] + x[5,6] <= 2
 triangleIneq0_40: x[4,5] + x[4,7] + x[5,7] <= 2
 triangleIneq1_40: x[4,5] - x[4,7] - x[5,7] <= 0
 triangleIneq2_40: - x[4,5] + x[4,7] - x[5,7] <= 0
 triangleIneq3_40: - x[4,5] - x[4,7] + x[5,7] <= 2
 triangleIneq0_41: x[4,6] + x[4,7] + x[6,7] <= 2
 triangleIneq1_41: x[4,6] - x[4,7] - x[6,7] <= 0
 triangleIneq2_41: - x[4,6] + x[4,7] - x[6,7] <= 0
 triangleIneq3_41: - x[4,6] - x[4,7] + x[6,7] <= 2
 triangleIneq0_42: x[5,6] + x[5,7] + x[6,7] <= 2
 triangleIneq1_42: x[5,6] - x[5,7] - x[6,7] <= 0
 triangleIneq2_42: - x[5,6] + x[5,7] - x[6,7] <= 0
 triangleIneq3_42: - x[5,6] - x[5,7] + x[6,7] <= 2
Bounds
Binaries
 x[0,7] x[0,1] x[0,3] x[0,5] x[0,6] x[0,2] x[0,4] x[1,6] x[1,2] x[1,3]
 x[1,4] x[1,5] x[1,7] x[2,6] x[2,5] x[2,3] x[2,4] x[2,7] x[3,4] x[3,6]
 x[3,5] x[3,7] x[4,5] x[4,6] x[4,7] x[5,6] x[5,7] x[6,7]
End
